107,80
36,3
11,32
38,88
41,75
140,96
151,81
18,52
183,98
136,31
159,3
67,86
189,68
64,12
86,50
38,54
34,99
155,85
144,15
52,11
43,15
171,95
80,45
43,50
166,41
188,2
62,40
97,10
139,84
142,43
3,35
188,60
153,63
75,7
109,67
21,26
130,4
99,75
68,80
1,86
55,80
20,19
172,6
7,100
9,70
171,8
41,45
192,57
66,46
172,53
